399974.97
511 512 513 514 515 516 517 520 518 519 538 537 536 539 540 541 542 544 545 543 549 546 547 548 550 551 552 553 554 556 555 557 558 559 560 584 585 586 587 588 589 590 592 593 591 1844 1845 1846 1847 1848 1849 1850 1851 1852 1853 1854 1855 1856 1857 1858 1860 1859 1862 1863 1861 1866 1864 1865 1867 1868 1869 1870 1871 1872 1873 1874 1875 1876 1877 1878 1879 1880 1882 1883 1881 1884 1885 1886 1887 1888 1890 1891 1892 1893 1895 1899 1896 1897 1898 1911 1900 1901 1894 1889 1902 1903 1904 1905 1906 1907 1908 1909 1910 1926 1927 1928 1929 1930 1931 1932 1933 1934 1935 1937 1936 1938 1939 1940 1941 1942 1944 1945 1946 1943 1951 1952 1953 1950 1949 1948 1947 1790 1791 1792 1793 1794 1795 1796 1797 1798 1799 1800 1801 1802 1803 1804 1806 1805 1770 1771 1772 1769 1768 1766 1765 1767 1774 1773 1775 1776 1777 1778 1779 1780 1781 1782 1783 1784 1785 1786 1787 1789 1788 1678 1679 1680 1681 1682 1683 1684 1685 1686 1687 1688 1689 1690 1691 1692 1693 1695 1694 1696 1697 1698 1702 1699 1723 1724 1725 1726 1727 1728 1729 1730 1731 1732 1733 1734 1735 1736 1737 1747 1748 1750 1751 1749 1746 1744 1745 1738 1739 1740 1741 1742 1743 1719 1720 1721 1722 1700 1701 1703 1704 1705 1706 1707 1708 1716 1717 1718 1714 1715 1713 1712 1711 1710 1709 1764 1763 1762 1761 1760 1759 1758 1752 1753 1754 1757 1755 1756 1813 1814 1815 1812 1811 1810 1809 1808 1807 1922 1923 1924 1925 1912 1913 1914 1915 1919 1920 1921 1918 1917 1916 1819 1818 1816 1817 1820 1821 1822 1823 1824 1825 1826 1827 1828 1829 1830 1831 1832 1833 1834 1835 1836 1837 1838 1839 1840 1841 1842 1843 594 595 596 597 598 608 609 611 612 610 607 605 606 599 600 601 602 603 604 580 581 582 583 561 562 563 564 565 566 567 568 625 570 569 578 577 576 579 575 574 573 572 571 624 623 622 621 620 619 613 614 615 618 616 617 674 675 676 673 672 671 670 669 668 783 784 785 788 789 791 792 790 787 786 773 774 775 776 777 780 781 782 779 778 680 679 677 678 681 682 683 684 685 686 687 688 689 757 758 759 772 761 762 760 756 755 754 751 752 753 692 691 693 690 694 695 696 697 698 699 700 701 702 703 704 705 706 707 708 709 744 745 742 741 743 710 711 712 713 714 715 716 717 718 719 720 721 729 722 723 724 727 725 726 728 732 731 730 733 734 735 736 737 738 739 740 746 747 748 749 750 763 764 765 766 767 768 769 770 771 793 794 795 796 801 803 804 812 813 814 811 810 809 808 807 806 805 802 800 798 797 799 656 657 658 659 660 661 663 662 664 665 667 666 631 632 633 634 635 630 629 627 626 628 637 638 636 639 640 641 642 643 644 645 654 655 652 651 653 646 647 648 649 650 456 455 454 453 452 451 450 448 447 446 443 442 441 444 445 449 465 467 466 472 473 474 471 470 468 464 463 462 461 460 459 458 457 533 534 535 532 531 530 529 526 528 521 522 523 527 524 525 469 477 478 476 475 439 440 437 438 436 435 434 433 432 431 430 429 428 427 426 424 394 425 423 422 421 420 419 418 415 416 417 857 856 859 860 861 868 865 864 862 863 852 854 855 853 851 850 849 848 847 846 845 844 843 842 841 840 839 838 837 836 833 835 834 815 816 817 818 819 820 821 822 823 824 826 825 831 832 829 828 830 827 866 867 869 870 858 871 872 873 414 413 412 411 876 877 874 875 878 879 880 881 882 885 887 886 888 893 894 892 896 895 897 898 899 900 901 902 903 904 905 906 908 909 910 913 914 915 912 911 907 891 889 890 884 883 917 916 919 918 920 921 922 923 924 925 926 927 928 929 930 931 933 935 937 938 936 934 932 410 409 408 407 406 405 404 403 402 401 400 399 398 397 396 395 393 392 391 390 389 388 387 386 385 384 383 382 381 380 379 378 377 376 375 374 373 372 371 370 369 368 367 366 365 364 363 362 361 360 359 2212 2211 2210 2209 2208 2207 2206 2205 2204 2203 2202 2201 2200 2199 2198 2197 2196 2195 2194 2193 2192 2191 2190 2189 2188 2187 2186 2185 2184 2183 2182 2181 2180 2179 2178 2177 2176 2175 2174 2173 2172 2171 2170 2169 2168 2167 2166 2165 2164 2163 2162 2161 2160 1602 1600 1598 1588 1587 1585 1584 1586 1589 1590 1591 1592 1497 1498 1499 1500 1487 1486 1502 1503 1505 1506 1507 1508 1509 1510 1512 1511 1513 1501 1514 1515 1516 1517 1519 1518 1523 1522 1521 1520 1581 1582 1580 1583 1579 1578 1577 1576 1575 1574 1573 1572 1571 1570 1569 1568 1566 1564 1530 1529 1528 1531 1532 1533 1527 1525 1524 1526 1535 1536 1534 1537 1538 1539 1540 1543 1542 1541 1545 1547 1548 1546 1544 1552 1551 1549 1550 1553 1554 1555 1556 1557 1558 1559 1561 1560 1562 1563 1565 1567 2295 2294 2289 2293 2292 2291 2290 2283 2281 2280 2278 2277 2279 2282 2284 2285 2286 2287 2288 2296 2297 2298 2299 2300 2301 2308 2309 2310 2307 2302 2303 2306 2304 2305 2329 2328 2327 2326 2330 2331 2332 2334 2333 2335 2336 2337 2338 2339 2340 2341 2342 2343 2344 2345 2346 2347 2348 2350 2349 2242 2246 2245 2247 2248 2249 2250 2253 2254 2255 2256 2259 2260 2262 2263 2261 2252 2251 2324 2325 2323 2322 2321 2320 2312 2311 2313 2314 2315 2316 2317 2318 2319 2264 2265 2266 2267 2268 2269 2270 2276 2275 2274 2271 2273 2272 2213 2214 2215 2216 2217 2218 2219 2220 2221 253 254 255 258 256 257 356 357 358 353 350 349 347 346 348 351 352 354 355 259 260 261 262 249 248 264 265 266 267 268 269 270 271 272 273 274 275 263 276 277 278 279 281 280 285 287 289 290 295 296 294 293 292 291 326 327 325 324 323 322 321 320 319 318 317 316 315 312 311 313 314 306 308 310 309 307 303 304 305 302 301 300 299 298 297 288 286 284 283 282 343 344 342 345 341 340 339 338 337 336 335 334 1018 1017 1019 1016 1009 1010 1008 1007 1006 1005 1004 1003 1002 995 993 991 992 994 996 1001 1000 997 999 998 939 940 941 942 943 944 945 946 947 948 950 951 952 953 954 955 956 957 958 959 960 961 963 964 965 966 967 968 962 969 970 971 972 973 974 975 976 977 978 979 980 981 983 949 984 982 985 986 987 988 989 990 1045 1044 1043 1042 1041 1040 1036 1037 1039 1038 1046 1047 1048 1049 1050 1051 1053 1054 1052 1056 1055 1032 1033 1034 1035 1011 1012 1013 1015 1014 1022 1023 1024 1021 1020 333 332 331 330 329 328 1025 1026 1027 1028 1029 1030 1031 1057 1058 1060 1059 1061 1062 1063 1064 1065 1066 1067 1068 1069 1070 1071 1072 1073 1074 1075 1076 1080 1081 1082 1083 1084 1085 1086 1087 1088 1092 1089 1090 1091 1093 1094 1079 1078 1077 1096 1097 1095 1098 1099 1100 1101 1102 1103 1104 1105 1106 1107 1108 1109 1111 1115 1117 1118 1116 1122 1121 1120 1119 1124 1123 113 112 1125 1126 1127 1128 1129 1130 1131 1132 1133 1134 1135 1136 1137 1138 1139 1140 1141 1144 1146 1145 1147 1152 1153 1151 1155 1154 1156 1157 1158 1159 1160 1161 1162 1163 1164 1165 1167 1168 1169 1172 1173 1174 1171 1170 1166 1150 1148 1149 1143 1142 1176 1175 1178 1177 1179 1180 1181 1182 1183 1184 1185 1186 1187 1188 1189 1190 1191 1193 1195 1196 1194 1192 1197 1198 1199 1200 1201 1202 1203 1204 1205 1206 1207 1208 1209 1210 1211 1212 1213 100 102 103 104 105 106 107 109 110 108 111 114 115 117 116 1114 1113 1112 1110 128 129 130 131 132 133 134 135 136 137 138 139 140 141 145 147 146 148 151 157 152 153 150 149 143 144 142 126 127 125 124 123 122 121 120 118 119 154 155 156 158 159 160 161 83 84 85 86 87 88 89 90 91 92 93 94 95 96 97 98 99 101 1214 1215 1216 1217 1218 1219 1220 1221 1222 1223 1224 1225 1226 1227 1228 1229 1230 1231 1232 1233 1234 1235 1236 1237 1238 1239 1240 1241 1242 1243 1245 1246 1247 1248 1249 1250 1251 1252 1253 1254 1255 1244 72 73 74 75 76 77 78 79 80 82 81 178 179 176 177 162 163 164 165 166 175 174 167 169 168 170 171 173 172 180 181 182 183 184 185 186 187 188 45 44 43 42 190 189 191 192 193 194 195 196 197 198 199 202 200 201 220 219 203 205 204 210 209 206 207 208 211 212 213 214 215 216 217 218 221 222 223 224 226 227 225 231 228 229 230 232 233 234 235 236 238 237 239 240 241 242 243 244 245 246 247 250 251 252 2222 2223 2258 2257 2224 2225 2226 2227 2228 2229 2230 2231 2232 2233 2234 2237 2238 2236 2235 2244 2243 2241 2240 2239 41 40 39 38 37 46 47 49 50 51 54 55 56 53 52 48 32 30 31 25 24 58 59 57 60 61 62 63 64 65 66 67 68 69 70 71 1256 1257 1258 1259 1260 1261 1262 1263 1264 1265 1266 1267 1268 1269 1270 1271 1272 1273 1338 1340 1341 1342 1343 1344 1345 1347 1348 1346 1352 1349 1350 7 8 9 10 11 12 13 14 15 16 17 18 19 20 21 22 23 26 28 27 29 33 36 34 35 2359 2362 2363 2364 2365 2368 2367 2366 2361 2360 2358 2357 2356 2355 2354 2353 2352 2351 2370 2371 2369 2372 2373 2374 2375 2376 2377 2378 2379 2380 2381 2382 2383 2385 2389 2391 0 2390 4 3 2 1 6 5 1351 1353 1355 1354 2388 2387 2386 2384 1366 1367 1368 1369 1370 1371 1372 1373 1374 1375 1376 1377 1378 1379 1380 1364 1365 1363 1362 1361 1360 1359 1358 1356 1357 1392 1393 1394 1391 1388 1387 1381 1382 1383 1385 1384 1386 1389 1390 1395 1396 1397 1398 1399 1321 1322 1323 1324 1325 1326 1327 1328 1329 1330 1331 1332 1333 1334 1335 1336 1337 1339 1274 1275 1276 1277 1278 1279 1280 1281 1282 1283 1284 1285 1286 1287 1288 1289 1290 1291 1292 1293 1294 1295 1296 1297 1298 1299 1300 1301 1302 1303 1307 1305 1304 1306 1308 1309 1310 1311 1312 1313 1314 1315 1316 1317 1318 1320 1319 1416 1417 1414 1415 1402 1400 1401 1403 1413 1412 1404 1405 1407 1406 1408 1409 1411 1410 1418 1419 1420 1421 1422 1423 1424 1425 1426 1427 1428 1429 1430 1431 1432 1433 1434 1435 1436 1437 1438 1439 1440 1441 1445 1446 1443 1444 1442 1448 1447 1449 1450 1451 1452 1453 1454 1455 1456 1457 1458 1459 1460 1461 1462 1464 1465 1463 1469 1466 1467 1468 1470 1471 1472 1473 1474 1476 1475 1477 1478 1479 1504 1480 1481 1482 1483 1484 1485 1488 1489 1490 1492 1493 1491 1494 1495 1496 1593 1594 1595 1596 1597 1599 1601 1603 1604 1605 1606 1607 1608 1609 1610 1611 1612 1613 1614 1616 1615 2159 2158 2157 2156 2155 1617 1618 1619 1634 1635 1636 1633 1622 1621 1620 1626 1625 1627 1628 1630 1631 1624 1623 1632 1637 1638 1639 1640 1641 1629 1642 1643 1644 1645 1646 1647 1648 1649 1650 1651 1652 1653 1654 1655 1656 1659 1657 1658 1677 1676 1675 1674 1673 1672 1671 1670 1669 1668 1665 1667 1660 1661 1662 1666 1663 1664 2145 2144 2143 2149 2148 2147 2146 2154 2153 2152 2151 2150 2116 2117 2114 2115 2113 2112 2111 2110 2109 2108 2107 2106 2105 2104 2103 2101 2102 2100 2099 2098 2097 2096 2095 2092 2093 2094 1996 1995 1998 1999 2000 2007 2004 2003 2001 2002 1988 1989 1990 1991 1992 1994 1993 2119 2118 2120 2121 2122 2123 2124 2125 2126 2142 2141 2137 2140 2139 2138 2136 2135 2134 2133 2132 2131 2130 2129 2128 2127 1987 1986 1985 1984 1983 1982 1981 1980 1979 1978 1977 1976 1975 1972 1974 1973 1954 1955 1956 1957 1958 1959 1960 1961 1962 1963 1965 1964 1970 1971 1968 1967 1969 1966 2005 2006 2008 2009 1997 2010 2011 2012 2091 2090 2089 2088 2087 2086 2013 2014 2015 2016 2017 2022 2023 2026 2028 2027 2029 2034 2035 2033 2037 2036 2038 2039 2040 2041 2042 2043 2044 2045 2046 2048 2032 2030 2031 2025 2024 2021 2020 2019 2018 2084 2085 2083 2082 2081 2080 2079 2078 2077 2076 2075 2073 2074 2072 2071 2070 2069 2068 2067 2066 2064 2065 486 485 484 483 482 481 479 480 487 2062 2063 2060 2061 490 489 488 496 495 494 491 492 493 497 498 499 500 502 501 2058 2059 2057 2056 2055 2054 2053 2052 2051 2050 2049 2047 505 503 504 506 507 508 509 510